# 3d Morse

#Initialization
boundary 	p p p
units		lj
atom_style	atomic
pair_style	morse 2.5

# Atom definition
lattice		sc  2
region		box block 0 8 0 8 0 8
create_box	1 box
create_atoms	1 box
mass		1 1.0
timestep 0.05

# Settings
velocity	all create 3.0 87287
pair_coeff	1 1 0.5 1.0 1.0 2.5
neighbor	1.5 bin
neigh_modify	every 1 delay 0 check yes page 1000000 one 20000
compute 	T all temp
compute 	Ecin all ke
compute 	Epot all pe
variable 	Temp equal c_T
variable 	E equal c_Ecin+c_Epot
fix 		3 all print 1 "${Temp} $E" file "../../Practica_C-Python/lammps_test/data3.txt" screen no
fix 		4 all nvt temp 10.0 0.1 100.0

#dump myDump all custom 20 ../../Practica_C-Python/lammps_test/dump.lammpstrj type x y z vx vy vz

# Run
thermo 		10000
run		150000
